ACTORES = {Actor0, Actor1, Actor2, Actor3, Actor4, Actor5, Actor6, Actor7, Actor8, Actor9};
Escenas =[|0,0,1,1,1,1,1,1,1,1,0,1,1,0,0,5
		  |0,0,0,1,1,0,0,0,0,1,1,1,1,0,0,4
		  |0,1,1,0,1,1,1,1,0,0,0,0,0,1,1,17
		  |1,0,1,1,0,0,0,0,0,1,1,1,0,0,1,7
		  |1,0,1,0,0,0,0,1,1,1,1,1,1,0,1,15
		  |1,0,0,1,0,1,0,1,1,1,0,0,1,0,0,5
		  |0,1,1,0,1,0,1,0,0,0,1,0,0,1,1,15
		  |1,0,0,1,1,0,0,1,0,1,1,1,0,1,0,12
		  |0,0,0,0,1,1,1,1,0,1,0,1,1,0,0,13
		  |1,0,0,1,1,0,1,0,0,0,0,1,0,0,1,17
		  |];
Duracion=[4, 2, 3, 2, 3, 1, 5, 4, 3, 1, 5, 5, 1, 1, 5];
Disponibilidad = [|Actor0, 19
				  |Actor1, 23
				  |Actor2, 3
				  |Actor3, 9
				  |Actor4, 8
				  |Actor5, 38
				  |Actor6, 48
				  |Actor7, 32
				  |Actor8, 22
				  |Actor9, 11|];
Evitar = [|Actor0, Actor2
		  |Actor0, Actor1
		  |Actor8, Actor9
		  |Actor1, Actor3
		  |Actor4, Actor5
		  |Actor3, Actor5
		  |Actor2, Actor8
		  |Actor1, Actor9
		  |Actor4, Actor8
		  |Actor3, Actor7
		  |Actor7, Actor8
		  |Actor3, Actor6
		  |Actor7, Actor9
		  |Actor5, Actor8
		  |Actor1, Actor8
		  |Actor2, Actor6
		  |Actor0, Actor3
		  |Actor3, Actor8
		  |Actor4, Actor9
		  |Actor2, Actor4
		  |Actor2, Actor3
		  |Actor0, Actor5
		  |Actor5, Actor9
		  |Actor1, Actor7
		  |Actor2, Actor5
		  |Actor4, Actor6
		  |Actor4, Actor7
		  |Actor5, Actor6
		  |Actor0, Actor4
		  |Actor2, Actor7
		  |Actor0, Actor8
		  |Actor5, Actor7
		  |Actor0, Actor6
		  |Actor3, Actor4|];
